
        $ From http://www.csplib.org/Problems/prob009/data/helmut.pdf
        $ Problem number 44
        $ Sequence length : 24
        language ESSENCE' 1.0
        letting sizemaster be 435
        letting sizes be sequence(3,5,9,11,12,21,24,27,30,44,45,50,54,55,63,95,101,112,117,123,134,140,178,200)
        